2023/05/23
Julia is now 1.9.0
previous version was 1.7.2
2023/11/29
gurobi is now 11.0.0
previous version was 10.0.2
solving instance uflp nldep holmberg 48 sinabc1
presolving:
(round 1, fast)       20 del vars, 1600 del conss, 0 add conss, 20 chg bounds, 0 chg sides, 0 chg coeffs, 0 upgd conss, 0 impls, 0 clqs
   (2.0s) symmetry computation started: requiring (bin +, int +, cont +), (fixed: bin -, int -, cont -)
   (2.0s) no symmetry present
presolving (2 rounds: 2 fast, 1 medium, 1 exhaustive):
 20 deleted vars, 1600 deleted constraints, 0 added constraints, 20 tightened bounds, 0 added holes, 0 changed sides, 0 changed coefficients
 0 implications, 0 cliques
presolved problem has 1640 variables (0 bin, 0 int, 0 impl, 1640 cont) and 120 constraints
    100 constraints of type <linear>
     20 constraints of type <nonlinear>
Presolving Time: 1.96

 time | node  | left  |LP iter|LP it/n|mem/heur|mdpt |vars |cons |rows |cuts |sepa|confs|strbr|  dualbound   | primalbound  |  gap   | compl. 
  2.0s|     1 |     0 |   132 |     - |    14M |   0 |1680 | 120 | 220 |   0 |  0 |   0 |   0 | 1.155197e+03 |      --      |    Inf | unknown
L 5.7s|     1 |     0 |   132 |     - |undercov|   0 |1680 | 120 | 220 |   0 |  0 |   0 |   0 | 1.155197e+03 | 1.194440e+03 |   3.40%| unknown
L 6.0s|     1 |     0 |   132 |     - |undercov|   0 |1680 | 120 | 220 |   0 |  0 |   0 |   0 | 1.155197e+03 | 1.194161e+03 |   3.37%| unknown
L 6.2s|     1 |     0 |   132 |     - |  subnlp|   0 |1680 | 120 | 220 |   0 |  0 |   0 |   0 | 1.155197e+03 | 1.194161e+03 |   3.37%| unknown
  6.2s|     1 |     0 |   152 |     - |    14M |   0 |1680 | 120 | 240 |  20 |  1 |   0 |   0 | 1.162866e+03 | 1.194161e+03 |   2.69%| unknown
  6.2s|     1 |     0 |   152 |     - |    14M |   0 |1680 | 120 | 240 |  20 |  1 |   0 |   0 | 1.162866e+03 | 1.194161e+03 |   2.69%| unknown
  6.2s|     1 |     0 |   154 |     - |    14M |   0 |1680 | 120 | 242 |  22 |  2 |   0 |   0 | 1.163088e+03 | 1.194161e+03 |   2.67%| unknown
  6.2s|     1 |     0 |   156 |     - |    14M |   0 |1680 | 120 | 244 |  24 |  3 |   0 |   0 | 1.163193e+03 | 1.194161e+03 |   2.66%| unknown
  6.3s|     1 |     0 |   580 |     - |    17M |   0 |1680 | 120 | 244 |  24 |  5 |   0 |   0 | 1.163451e+03 | 1.194161e+03 |   2.64%| unknown
  6.3s|     1 |     0 |   618 |     - |    17M |   0 |1680 | 120 | 264 |  44 |  6 |   0 |   0 | 1.191595e+03 | 1.194161e+03 |   0.22%| unknown
  6.3s|     1 |     0 |   639 |     - |    17M |   0 |1680 | 120 | 284 |  64 |  7 |   0 |   0 | 1.193990e+03 | 1.194161e+03 |   0.01%| unknown
  6.3s|     1 |     0 |   641 |     - |    17M |   0 |1680 | 120 | 287 |  67 |  8 |   0 |   0 | 1.193990e+03 | 1.194161e+03 |   0.01%| unknown
  6.3s|     1 |     0 |   642 |     - |    17M |   0 |1680 | 120 | 288 |  68 |  9 |   0 |   0 | 1.193990e+03 | 1.194161e+03 |   0.01%| unknown
  6.3s|     1 |     0 |   644 |     - |    17M |   0 |1680 | 120 | 290 |  70 | 10 |   0 |   0 | 1.193991e+03 | 1.194161e+03 |   0.01%| unknown
  6.3s|     1 |     0 |   645 |     - |    17M |   0 |1680 | 120 | 292 |  72 | 11 |   0 |   0 | 1.193991e+03 | 1.194161e+03 |   0.01%| unknown
 time | node  | left  |LP iter|LP it/n|mem/heur|mdpt |vars |cons |rows |cuts |sepa|confs|strbr|  dualbound   | primalbound  |  gap   | compl. 
L 6.4s|     1 |     0 |   645 |     - |  subnlp|   0 |1680 | 120 | 292 |  72 | 13 |   0 |   0 | 1.193991e+03 | 1.194161e+03 |   0.01%| unknown
  6.5s|     1 |     0 |   645 |     - |    17M |   0 |1680 | 120 | 292 |  72 | 13 |   0 |   0 | 1.193991e+03 | 1.194161e+03 |   0.01%| unknown
  6.5s|     1 |     2 |   645 |     - |    17M |   0 |1680 | 120 | 292 |  72 | 15 |   0 |   0 | 1.193991e+03 | 1.194161e+03 |   0.01%| unknown

SCIP Status        : problem is solved [optimal solution found]
Solving Time (sec) : 6.62
Solving Nodes      : 5
Primal Bound       : +1.19416080256508e+03 (6 solutions)
Dual Bound         : +1.19416080256508e+03
Gap                : 0.00 %
reading holmberg data file ../../../../../instances/uflp/holmberg/p48
primal_bound = 1194.1608025650846, dual_bound = 1194.1608025650846, gap = 0.0, time = 11.69
